
(set-logic NIA)
(synth-fun int_bvnand_1 ((s Int) (t Int)) Int
(
  (I Int) (Ic Int) (B Bool)
)
(
  (I Int  (
       Ic
       (+ I I )
       (* I I)
       (ite B I I)
    )
  )
  (Ic Int (
  s
  t
    (Constant Int)
  )
)
  (B Bool (
       (= I I)
       (>= I I)
       (not B)
     )
  )
)
)
(constraint (= (int_bvnand_1 0 0) -1))
(constraint (= (int_bvnand_1 0 1) -1))
(constraint (= (int_bvnand_1 1 0) -1))
(constraint (= (int_bvnand_1 1 1) -2))
(check-synth)
